(declare-fun cmp.i_48_16 () (_ BitVec 1))
(declare-fun i.i_48_14 () (_ BitVec 64))
(declare-fun dst_reg_48_6 () (_ BitVec 64))
(declare-fun dst_reg_48_13 () (_ BitVec 8))
(declare-fun dst_reg_48_12 () (_ BitVec 32))
(declare-fun dst_reg_48_11 () (_ BitVec 32))
(declare-fun dst_reg_48_10 () (_ BitVec 32))
(declare-fun dst_reg_48_9 () (_ BitVec 64))
(declare-fun dst_reg_48_8 () (_ BitVec 64))
(declare-fun dst_reg_48_7 () (_ BitVec 64))
(declare-fun dst_reg_48_5 () (_ BitVec 64))
(declare-fun dst_reg_48_4 () (_ BitVec 64))
(declare-fun dst_reg_48_3 () (_ BitVec 32))
(declare-fun dst_reg_48_2 () (_ BitVec 32))
(declare-fun dst_reg_48_1 () (_ BitVec 32))
(declare-fun dst_reg_48_0 () (_ BitVec 32))
(declare-fun cmp1.i_48_19 () (_ BitVec 1))
(declare-fun i33.i_48_17 () (_ BitVec 64))
(declare-fun i38.i_48_28 () (_ BitVec 64))
(declare-fun cond40.i_48_32 () (_ BitVec 64))
(declare-fun cmp16.i_48_27 () (_ BitVec 1))
(declare-fun cmp31.i_48_31 () (_ BitVec 1))
(declare-fun i36.i_48_23 () (_ BitVec 64))
(declare-fun i35.i_48_22 () (_ BitVec 64))
(declare-fun cond12.i_48_24 () (_ BitVec 64))
(declare-fun i34.i_48_20 () (_ BitVec 64))
(declare-fun cond.i_48_21 () (_ BitVec 64))
(declare-fun i37.i_48_25 () (_ BitVec 64))
(declare-fun add.i.i.i_48_97 () (_ BitVec 32))
(declare-fun i_48_99 () (_ BitVec 32))
(declare-fun sub28.i.i.i.i_48_94 () (_ BitVec 32))
(declare-fun num.5.i.i.i.i_48_96 () (_ BitVec 32))
(declare-fun num.4.i.i.i.i_48_91 () (_ BitVec 32))
(declare-fun tobool26.not18.i.i.i.i_48_93 () (_ BitVec 1))
(declare-fun word.addr.4.i.i.i.i_48_90 () (_ BitVec 64))
(declare-fun num.3.i.i.i.i_48_83 () (_ BitVec 32))
(declare-fun sub22.i.i.i.i_48_87 () (_ BitVec 32))
(declare-fun tobool20.not.i.i.i.i_48_85 () (_ BitVec 1))
(declare-fun word.addr.3.i.i.i.i_48_82 () (_ BitVec 64))
(declare-fun shl23.i.i.i.i_48_89 () (_ BitVec 64))
(declare-fun num.2.i.i.i.i_48_75 () (_ BitVec 32))
(declare-fun sub16.i.i.i.i_48_79 () (_ BitVec 32))
(declare-fun tobool14.not.i.i.i.i_48_77 () (_ BitVec 1))
(declare-fun word.addr.2.i.i.i.i_48_74 () (_ BitVec 64))
(declare-fun shl17.i.i.i.i_48_81 () (_ BitVec 64))
(declare-fun num.1.i.i.i.i_48_67 () (_ BitVec 32))
(declare-fun sub10.i.i.i.i_48_71 () (_ BitVec 32))
(declare-fun tobool8.not.i.i.i.i_48_69 () (_ BitVec 1))
(declare-fun word.addr.1.i.i.i.i_48_66 () (_ BitVec 64))
(declare-fun shl11.i.i.i.i_48_73 () (_ BitVec 64))
(declare-fun spec.select17.i.i.i.i_48_59 () (_ BitVec 32))
(declare-fun sub4.i.i.i.i_48_63 () (_ BitVec 32))
(declare-fun tobool2.not.i.i.i.i_48_61 () (_ BitVec 1))
(declare-fun spec.select.i.i.i.i_48_56 () (_ BitVec 64))
(declare-fun shl5.i.i.i.i_48_65 () (_ BitVec 64))
(declare-fun tobool.not.i.i.i.i_48_53 () (_ BitVec 1))
(declare-fun xor.i.i_48_49 () (_ BitVec 64))
(declare-fun shl.i.i.i.i_48_55 () (_ BitVec 64))
(declare-fun cmp.i.i.i_48_51 () (_ BitVec 1))
(declare-fun cond27.i_48_29 () (_ BitVec 64))
(declare-fun dst_reg_48_46 () (_ BitVec 8))
(declare-fun dst_reg_48_45 () (_ BitVec 32))
(declare-fun dst_reg_48_44 () (_ BitVec 32))
(declare-fun dst_reg_48_43 () (_ BitVec 32))
(declare-fun dst_reg_48_42 () (_ BitVec 64))
(declare-fun dst_reg_48_41 () (_ BitVec 64))
(declare-fun dst_reg_48_40 () (_ BitVec 64))
(declare-fun dst_reg_48_39 () (_ BitVec 64))
(declare-fun dst_reg_48_38 () (_ BitVec 64))
(declare-fun dst_reg_48_37 () (_ BitVec 64))
(declare-fun dst_reg_48_36 () (_ BitVec 32))
(declare-fun dst_reg_48_35 () (_ BitVec 32))
(declare-fun dst_reg_48_34 () (_ BitVec 32))
(declare-fun dst_reg_48_33 () (_ BitVec 32))
(declare-fun i.i2_48_47 () (_ BitVec 64))
(declare-fun i5.i_48_48 () (_ BitVec 64))
(declare-fun dst_reg_48_136 () (_ BitVec 8))
(declare-fun dst_reg_48_135 () (_ BitVec 32))
(declare-fun dst_reg_48_134 () (_ BitVec 32))
(declare-fun dst_reg_48_133 () (_ BitVec 32))
(declare-fun dst_reg_48_132 () (_ BitVec 64))
(declare-fun dst_reg_48_131 () (_ BitVec 64))
(declare-fun dst_reg_48_130 () (_ BitVec 64))
(declare-fun dst_reg_48_129 () (_ BitVec 64))
(declare-fun dst_reg_48_128 () (_ BitVec 64))
(declare-fun and.i1.i_48_119 () (_ BitVec 64))
(declare-fun dst_reg_48_127 () (_ BitVec 64))
(declare-fun and4.i.i_48_122 () (_ BitVec 64))
(declare-fun dst_reg_48_126 () (_ BitVec 32))
(declare-fun dst_reg_48_125 () (_ BitVec 32))
(declare-fun dst_reg_48_124 () (_ BitVec 32))
(declare-fun dst_reg_48_123 () (_ BitVec 32))
(declare-fun __reg_deduce_bounds.exit___reg_bound_offset.exit_48_101 () Bool)
(declare-fun if.end.i.i.i___reg_bound_offset.exit_48_100 () Bool)
(declare-fun not.i.i_48_121 () (_ BitVec 64))
(declare-fun or.i.i_48_118 () (_ BitVec 64))
(declare-fun i11.i_48_117 () (_ BitVec 64))
(declare-fun retval.sroa.3.0.i.i_48_115 () (_ BitVec 64))
(declare-fun i9.i_48_116 () (_ BitVec 64))
(declare-fun retval.sroa.0.0.i.i_48_113 () (_ BitVec 64))
(declare-fun sub.i.i_48_110 () (_ BitVec 64))
(declare-fun cmp.i.i_48_105 () (_ BitVec 1))
(declare-fun and.i.i_48_111 () (_ BitVec 64))
(declare-fun notmask.i.i_48_108 () (_ BitVec 64))
(declare-fun sh_prom.i.i_48_106 () (_ BitVec 64))
(declare-fun retval.0.i.i.i_48_102 () (_ BitVec 32))
(assert (let ((a!1 (and (= cmp16.i_48_27 #b0)
                (and (= cmp1.i_48_19 #b0) (= cmp.i_48_16 #b0))))
      (a!2 (and (= cmp16.i_48_27 #b1)
                (and (= cmp1.i_48_19 #b0) (= cmp.i_48_16 #b0))))
      (a!3 (or (and (= cmp1.i_48_19 #b1) (= cmp.i_48_16 #b0))
               (= cmp.i_48_16 #b1)))
      (a!9 (and (= cond27.i_48_29
                   (ite (bvule i33.i_48_17 i37.i_48_25) i33.i_48_17 i37.i_48_25))))
      (a!11 (=> (and (= cmp1.i_48_19 #b0) (= cmp.i_48_16 #b0))
                (and (= dst_reg_48_9 i37.i_48_25)
                     (ite (bvsgt i37.i_48_25 #xffffffffffffffff)
                          (= cmp16.i_48_27 #b1)
                          (= cmp16.i_48_27 #b0))
                     (= dst_reg_48_8 i38.i_48_28))))
      (a!12 (and (= dst_reg_48_8 i34.i_48_20)
                 (= cond.i_48_21
                    (ite (bvuge i.i_48_14 i34.i_48_20) i.i_48_14 i34.i_48_20))
                 (= dst_reg_48_7 i35.i_48_22)
                 (= dst_reg_48_9 i36.i_48_23)
                 (= cond12.i_48_24
                    (ite (bvule i35.i_48_22 i36.i_48_23)
                         i35.i_48_22
                         i36.i_48_23))))
      (a!13 (and (= cond40.i_48_32
                    (ite (bvuge i.i_48_14 i38.i_48_28) i.i_48_14 i38.i_48_28))))
      (a!14 (=> (= cmp.i_48_16 #b0)
                (and (= dst_reg_48_7 i33.i_48_17)
                     (ite (bvslt i33.i_48_17 #x0000000000000000)
                          (= cmp1.i_48_19 #b1)
                          (= cmp1.i_48_19 #b0))))))
(let ((a!4 (or (and (= cmp31.i_48_31 #b1) a!1)
               (and (= cmp31.i_48_31 #b0) a!1)
               a!2
               a!3))
      (a!7 (and (= dst_reg_48_41 i.i2_48_47)
                (= dst_reg_48_42 i5.i_48_48)
                (= xor.i.i_48_49 (bvxor i5.i_48_48 i.i2_48_47))
                (ite (= xor.i.i_48_49 #x0000000000000000)
                     (= cmp.i.i.i_48_51 #b1)
                     (= cmp.i.i.i_48_51 #b0))
                (=> a!3
                    (and (= dst_reg_48_0 dst_reg_48_33)
                         (= dst_reg_48_1 dst_reg_48_34)
                         (= dst_reg_48_2 dst_reg_48_35)
                         (= dst_reg_48_3 dst_reg_48_36)
                         (= dst_reg_48_4 dst_reg_48_37)
                         (= dst_reg_48_5 dst_reg_48_38)
                         (= cond.i_48_21 dst_reg_48_39)
                         (= cond12.i_48_24 dst_reg_48_40)
                         (= cond.i_48_21 dst_reg_48_41)
                         (= cond12.i_48_24 dst_reg_48_42)
                         (= dst_reg_48_10 dst_reg_48_43)
                         (= dst_reg_48_11 dst_reg_48_44)
                         (= dst_reg_48_12 dst_reg_48_45)
                         (= dst_reg_48_13 dst_reg_48_46)))
                (=> a!2
                    (and (= dst_reg_48_0 dst_reg_48_33)
                         (= dst_reg_48_1 dst_reg_48_34)
                         (= dst_reg_48_2 dst_reg_48_35)
                         (= dst_reg_48_3 dst_reg_48_36)
                         (= dst_reg_48_4 dst_reg_48_37)
                         (= dst_reg_48_5 dst_reg_48_38)
                         (= i38.i_48_28 dst_reg_48_39)
                         (= cond27.i_48_29 dst_reg_48_40)
                         (= dst_reg_48_8 dst_reg_48_41)
                         (= cond27.i_48_29 dst_reg_48_42)
                         (= dst_reg_48_10 dst_reg_48_43)
                         (= dst_reg_48_11 dst_reg_48_44)
                         (= dst_reg_48_12 dst_reg_48_45)
                         (= dst_reg_48_13 dst_reg_48_46)))
                (=> (and (= cmp31.i_48_31 #b0) a!1)
                    (and (= dst_reg_48_0 dst_reg_48_33)
                         (= dst_reg_48_1 dst_reg_48_34)
                         (= dst_reg_48_2 dst_reg_48_35)
                         (= dst_reg_48_3 dst_reg_48_36)
                         (= dst_reg_48_4 dst_reg_48_37)
                         (= dst_reg_48_5 dst_reg_48_38)
                         (= dst_reg_48_6 dst_reg_48_39)
                         (= dst_reg_48_7 dst_reg_48_40)
                         (= dst_reg_48_8 dst_reg_48_41)
                         (= dst_reg_48_9 dst_reg_48_42)
                         (= dst_reg_48_10 dst_reg_48_43)
                         (= dst_reg_48_11 dst_reg_48_44)
                         (= dst_reg_48_12 dst_reg_48_45)
                         (= dst_reg_48_13 dst_reg_48_46)))
                (=> (and (= cmp31.i_48_31 #b1) a!1)
                    (and (= dst_reg_48_0 dst_reg_48_33)
                         (= dst_reg_48_1 dst_reg_48_34)
                         (= dst_reg_48_2 dst_reg_48_35)
                         (= dst_reg_48_3 dst_reg_48_36)
                         (= dst_reg_48_4 dst_reg_48_37)
                         (= dst_reg_48_5 dst_reg_48_38)
                         (= cond40.i_48_32 dst_reg_48_39)
                         (= i37.i_48_25 dst_reg_48_40)
                         (= cond40.i_48_32 dst_reg_48_41)
                         (= dst_reg_48_9 dst_reg_48_42)
                         (= dst_reg_48_10 dst_reg_48_43)
                         (= dst_reg_48_11 dst_reg_48_44)
                         (= dst_reg_48_12 dst_reg_48_45)
                         (= dst_reg_48_13 dst_reg_48_46)))))
      (a!8 (=> a!1
               (and (ite (bvslt i38.i_48_28 #x0000000000000000)
                         (= cmp31.i_48_31 #b1)
                         (= cmp31.i_48_31 #b0))))))
(let ((a!5 (and (=> if.end.i.i.i___reg_bound_offset.exit_48_100
                    (= retval.0.i.i.i_48_102 i_48_99))
                (=> __reg_deduce_bounds.exit___reg_bound_offset.exit_48_101
                    (= retval.0.i.i.i_48_102 #x00000000))
                (ite (bvugt retval.0.i.i.i_48_102 #x0000003f)
                     (= cmp.i.i_48_105 #b1)
                     (= cmp.i.i_48_105 #b0))
                (= sh_prom.i.i_48_106
                   ((_ zero_extend 32) retval.0.i.i.i_48_102))
                (= notmask.i.i_48_108
                   (bvshl #xffffffffffffffff sh_prom.i.i_48_106))
                (= sub.i.i_48_110 (bvxor notmask.i.i_48_108 #xffffffffffffffff))
                (= and.i.i_48_111 (bvand notmask.i.i_48_108 i.i2_48_47))
                (ite (= cmp.i.i_48_105 #b1)
                     (= retval.sroa.0.0.i.i_48_113 #x0000000000000000)
                     (= retval.sroa.0.0.i.i_48_113 and.i.i_48_111))
                (ite (= cmp.i.i_48_105 #b1)
                     (= retval.sroa.3.0.i.i_48_115 #xffffffffffffffff)
                     (= retval.sroa.3.0.i.i_48_115 sub.i.i_48_110))
                (= dst_reg_48_37 i9.i_48_116)
                (= dst_reg_48_38 i11.i_48_117)
                (= or.i.i_48_118 (bvor retval.sroa.0.0.i.i_48_113 i9.i_48_116))
                (= and.i1.i_48_119
                   (bvand retval.sroa.3.0.i.i_48_115 i11.i_48_117))
                (= not.i.i_48_121 (bvxor and.i1.i_48_119 #xffffffffffffffff))
                (= and4.i.i_48_122 (bvand or.i.i_48_118 not.i.i_48_121))
                (= if.end.i.i.i___reg_bound_offset.exit_48_100
                   (and (= cmp.i.i.i_48_51 #b0) a!4))
                (= __reg_deduce_bounds.exit___reg_bound_offset.exit_48_101
                   (and (= cmp.i.i.i_48_51 #b1) a!4))
                (= dst_reg_48_33 dst_reg_48_123)
                (= dst_reg_48_34 dst_reg_48_124)
                (= dst_reg_48_35 dst_reg_48_125)
                (= dst_reg_48_36 dst_reg_48_126)
                (= and4.i.i_48_122 dst_reg_48_127)
                (= and.i1.i_48_119 dst_reg_48_128)
                (= dst_reg_48_39 dst_reg_48_129)
                (= dst_reg_48_40 dst_reg_48_130)
                (= dst_reg_48_41 dst_reg_48_131)
                (= dst_reg_48_42 dst_reg_48_132)
                (= dst_reg_48_43 dst_reg_48_133)
                (= dst_reg_48_44 dst_reg_48_134)
                (= dst_reg_48_45 dst_reg_48_135)
                (= dst_reg_48_46 dst_reg_48_136)))
      (a!10 (=> (and (= cmp.i.i.i_48_51 #b0) a!4)
                (and (ite (bvult xor.i.i_48_49 #x0000000100000000)
                          (= tobool.not.i.i.i.i_48_53 #b1)
                          (= tobool.not.i.i.i.i_48_53 #b0))
                     (= shl.i.i.i.i_48_55
                        (bvshl xor.i.i_48_49 #x0000000000000020))
                     (ite (= tobool.not.i.i.i.i_48_53 #b1)
                          (= spec.select.i.i.i.i_48_56 shl.i.i.i.i_48_55)
                          (= spec.select.i.i.i.i_48_56 xor.i.i_48_49))
                     (ite (= tobool.not.i.i.i.i_48_53 #b1)
                          (= spec.select17.i.i.i.i_48_59 #x0000001f)
                          (= spec.select17.i.i.i.i_48_59 #x0000003f))
                     (ite (bvult spec.select.i.i.i.i_48_56 #x0001000000000000)
                          (= tobool2.not.i.i.i.i_48_61 #b1)
                          (= tobool2.not.i.i.i.i_48_61 #b0))
                     (= sub4.i.i.i.i_48_63
                        (bvadd spec.select17.i.i.i.i_48_59 #xfffffff0))
                     (= shl5.i.i.i.i_48_65
                        (bvshl spec.select.i.i.i.i_48_56 #x0000000000000010))
                     (ite (= tobool2.not.i.i.i.i_48_61 #b1)
                          (= word.addr.1.i.i.i.i_48_66 shl5.i.i.i.i_48_65)
                          (= word.addr.1.i.i.i.i_48_66
                             spec.select.i.i.i.i_48_56))
                     (ite (= tobool2.not.i.i.i.i_48_61 #b1)
                          (= num.1.i.i.i.i_48_67 sub4.i.i.i.i_48_63)
                          (= num.1.i.i.i.i_48_67 spec.select17.i.i.i.i_48_59))
                     (ite (bvult word.addr.1.i.i.i.i_48_66 #x0100000000000000)
                          (= tobool8.not.i.i.i.i_48_69 #b1)
                          (= tobool8.not.i.i.i.i_48_69 #b0))
                     (= sub10.i.i.i.i_48_71
                        (bvadd num.1.i.i.i.i_48_67 #xfffffff8))
                     (= shl11.i.i.i.i_48_73
                        (bvshl word.addr.1.i.i.i.i_48_66 #x0000000000000008))
                     (ite (= tobool8.not.i.i.i.i_48_69 #b1)
                          (= word.addr.2.i.i.i.i_48_74 shl11.i.i.i.i_48_73)
                          (= word.addr.2.i.i.i.i_48_74
                             word.addr.1.i.i.i.i_48_66))
                     (ite (= tobool8.not.i.i.i.i_48_69 #b1)
                          (= num.2.i.i.i.i_48_75 sub10.i.i.i.i_48_71)
                          (= num.2.i.i.i.i_48_75 num.1.i.i.i.i_48_67))
                     (ite (bvult word.addr.2.i.i.i.i_48_74 #x1000000000000000)
                          (= tobool14.not.i.i.i.i_48_77 #b1)
                          (= tobool14.not.i.i.i.i_48_77 #b0))
                     (= sub16.i.i.i.i_48_79
                        (bvadd num.2.i.i.i.i_48_75 #xfffffffc))
                     (= shl17.i.i.i.i_48_81
                        (bvshl word.addr.2.i.i.i.i_48_74 #x0000000000000004))
                     (ite (= tobool14.not.i.i.i.i_48_77 #b1)
                          (= word.addr.3.i.i.i.i_48_82 shl17.i.i.i.i_48_81)
                          (= word.addr.3.i.i.i.i_48_82
                             word.addr.2.i.i.i.i_48_74))
                     (ite (= tobool14.not.i.i.i.i_48_77 #b1)
                          (= num.3.i.i.i.i_48_83 sub16.i.i.i.i_48_79)
                          (= num.3.i.i.i.i_48_83 num.2.i.i.i.i_48_75))
                     (ite (bvult word.addr.3.i.i.i.i_48_82 #x4000000000000000)
                          (= tobool20.not.i.i.i.i_48_85 #b1)
                          (= tobool20.not.i.i.i.i_48_85 #b0))
                     (= sub22.i.i.i.i_48_87
                        (bvadd num.3.i.i.i.i_48_83 #x000000fe))
                     (= shl23.i.i.i.i_48_89
                        (bvshl word.addr.3.i.i.i.i_48_82 #x0000000000000002))
                     (ite (= tobool20.not.i.i.i.i_48_85 #b1)
                          (= word.addr.4.i.i.i.i_48_90 shl23.i.i.i.i_48_89)
                          (= word.addr.4.i.i.i.i_48_90
                             word.addr.3.i.i.i.i_48_82))
                     (ite (= tobool20.not.i.i.i.i_48_85 #b1)
                          (= num.4.i.i.i.i_48_91 sub22.i.i.i.i_48_87)
                          (= num.4.i.i.i.i_48_91 num.3.i.i.i.i_48_83))
                     (ite (bvsgt word.addr.4.i.i.i.i_48_90 #xffffffffffffffff)
                          (= tobool26.not18.i.i.i.i_48_93 #b1)
                          (= tobool26.not18.i.i.i.i_48_93 #b0))
                     (= sub28.i.i.i.i_48_94
                        ((_ sign_extend 31) tobool26.not18.i.i.i.i_48_93))
                     (= num.5.i.i.i.i_48_96
                        (bvadd num.4.i.i.i.i_48_91 #x00000001))
                     (= add.i.i.i_48_97
                        (bvadd num.5.i.i.i.i_48_96 sub28.i.i.i.i_48_94))
                     (= i_48_99 (bvand add.i.i.i_48_97 #x000000ff))))))
(let ((a!6 (=> (or (and (= cmp.i.i.i_48_51 #b0) a!4)
                   (and (= cmp.i.i.i_48_51 #b1) a!4))
               a!5)))
  (and a!6
       (=> a!4 a!7)
       a!8
       (=> a!2 a!9)
       a!10
       a!11
       (=> a!3 a!12)
       (=> (and (= cmp31.i_48_31 #b1) a!1) a!13)
       a!14
       (= dst_reg_48_0 dst_reg_48_0)
       (= dst_reg_48_1 dst_reg_48_1)
       (= dst_reg_48_2 dst_reg_48_2)
       (= dst_reg_48_3 dst_reg_48_3)
       (= dst_reg_48_4 dst_reg_48_4)
       (= dst_reg_48_5 dst_reg_48_5)
       (= dst_reg_48_6 dst_reg_48_6)
       (= dst_reg_48_7 dst_reg_48_7)
       (= dst_reg_48_8 dst_reg_48_8)
       (= dst_reg_48_9 dst_reg_48_9)
       (= dst_reg_48_10 dst_reg_48_10)
       (= dst_reg_48_11 dst_reg_48_11)
       (= dst_reg_48_12 dst_reg_48_12)
       (= dst_reg_48_13 dst_reg_48_13)
       (= dst_reg_48_6 i.i_48_14)
       (ite (bvsgt i.i_48_14 #xffffffffffffffff)
            (= cmp.i_48_16 #b1)
            (= cmp.i_48_16 #b0))))))))

;{"dst_reg":["dst_reg_48_0",[""],"dst_reg_48_1","dst_reg_48_2","dst_reg_48_3",["dst_reg_48_4","dst_reg_48_5"],"dst_reg_48_6","dst_reg_48_7","dst_reg_48_8","dst_reg_48_9","","","dst_reg_48_10","dst_reg_48_11","dst_reg_48_12"]}
;{"dst_reg":["dst_reg_48_123",[""],"dst_reg_48_124","dst_reg_48_125","dst_reg_48_126",["dst_reg_48_127","dst_reg_48_128"],"dst_reg_48_129","dst_reg_48_130","dst_reg_48_131","dst_reg_48_132","","","dst_reg_48_133","dst_reg_48_134","dst_reg_48_135"]}
